(set-logic QF_UF)
(declare-fun A0 () Bool)
(declare-fun A1 () Bool)
(declare-fun A2 () Bool)
(declare-fun A4 () Bool)
(declare-fun A5 () Bool)
(declare-fun A6 () Bool)
(declare-fun A7 () Bool)
(declare-fun A9 () Bool)
(declare-fun A10 () Bool)
(declare-fun A11 () Bool)
(declare-fun A12 () Bool)
(declare-fun A14 () Bool)
(declare-fun A15 () Bool)
(declare-fun A16 () Bool)
(declare-fun A17 () Bool)
(declare-fun A18 () Bool)
(declare-fun A19 () Bool)
(declare-fun A20 () Bool)
(declare-fun A21 () Bool)
(declare-fun A23 () Bool)
(declare-fun A24 () Bool)
(declare-fun A25 () Bool)
(declare-fun A26 () Bool)
(declare-fun A27 () Bool)
(declare-fun A28 () Bool)
(declare-fun A29 () Bool)
(assert (let ((.def_0 (not A2))) (let ((.def_1 (or A14 .def_0))) (let ((.def_2 (not A14))) (let ((.def_3 (or .def_2 A4))) (let ((.def_4 (and .def_3 .def_1))) (let ((.def_5 (not .def_4))) (let ((.def_6 (not A25))) (let ((.def_7 (not A27))) (let ((.def_8 (or .def_7 .def_6))) (let ((.def_9 (not .def_8))) (let ((.def_10 (or A23 A16))) (let ((.def_11 (not .def_10))) (let ((.def_12 (and .def_11 .def_9))) (let ((.def_13 (or .def_12 .def_5))) (let ((.def_14 (not A17))) (let ((.def_15 (not A15))) (let ((.def_16 (and .def_15 .def_14))) (let ((.def_17 (not .def_16))) (let ((.def_18 (not A19))) (let ((.def_19 (not A0))) (let ((.def_20 (and .def_19 .def_18))) (let ((.def_21 (or .def_20 .def_17))) (let ((.def_22 (not A6))) (let ((.def_23 (= A20 .def_22))) (let ((.def_24 (not A24))) (let ((.def_25 (and A25 .def_24))) (let ((.def_26 (not .def_25))) (let ((.def_27 (= .def_26 .def_23))) (let ((.def_28 (and .def_27 .def_21))) (let ((.def_29 (and .def_28 .def_13))) (let ((.def_30 (not A1))) (let ((.def_31 (and .def_30 A0))) (let ((.def_32 (not .def_31))) (let ((.def_33 (not A20))) (let ((.def_34 (and .def_0 .def_33))) (let ((.def_35 (and .def_34 .def_32))) (let ((.def_36 (not A9))) (let ((.def_37 (or .def_36 A4))) (let ((.def_38 (= A1 A18))) (let ((.def_39 (not .def_38))) (let ((.def_40 (or .def_39 .def_37))) (let ((.def_41 (not .def_40))) (let ((.def_42 (and .def_41 .def_35))) (let ((.def_43 (= A9 A15))) (let ((.def_44 (not A28))) (let ((.def_45 (and .def_44 A14))) (let ((.def_46 (or .def_45 .def_43))) (let ((.def_47 (not .def_46))) (let ((.def_48 (and .def_24 A29))) (let ((.def_49 (not .def_48))) (let ((.def_50 (= A18 A29))) (let ((.def_51 (or .def_50 .def_49))) (let ((.def_52 (not .def_51))) (let ((.def_53 (or .def_52 .def_47))) (let ((.def_54 (not .def_53))) (let ((.def_55 (or .def_54 .def_42))) (let ((.def_56 (or .def_55 .def_29))) (let ((.def_57 (not .def_56))) (let ((.def_58 (or A10 A20))) (let ((.def_59 (and A19 A18))) (let ((.def_60 (not .def_59))) (let ((.def_61 (and .def_60 .def_58))) (let ((.def_62 (not A11))) (let ((.def_63 (= .def_62 A16))) (let ((.def_64 (not .def_63))) (let ((.def_65 (or A6 A17))) (let ((.def_66 (= .def_65 .def_64))) (let ((.def_67 (and .def_66 .def_61))) (let ((.def_68 (not A7))) (let ((.def_69 (or A11 .def_68))) (let ((.def_70 (and A20 A29))) (let ((.def_71 (and .def_70 .def_69))) (let ((.def_72 (and A12 .def_30))) (let ((.def_73 (not .def_72))) (let ((.def_74 (not A21))) (let ((.def_75 (or A0 .def_74))) (let ((.def_76 (not .def_75))) (let ((.def_77 (and .def_76 .def_73))) (let ((.def_78 (or .def_77 .def_71))) (let ((.def_79 (and .def_78 .def_67))) (let ((.def_80 (not A4))) (let ((.def_81 (not A12))) (let ((.def_82 (and .def_81 .def_80))) (let ((.def_83 (not .def_82))) (let ((.def_84 (= A24 .def_81))) (let ((.def_85 (not .def_84))) (let ((.def_86 (or .def_85 .def_83))) (let ((.def_87 (or A4 .def_30))) (let ((.def_88 (not .def_37))) (let ((.def_89 (and .def_88 .def_87))) (let ((.def_90 (and .def_89 .def_86))) (let ((.def_91 (not .def_90))) (let ((.def_92 (not A23))) (let ((.def_93 (and .def_2 .def_92))) (let ((.def_94 (not .def_93))) (let ((.def_95 (and .def_30 .def_15))) (let ((.def_96 (or .def_95 .def_94))) (let ((.def_97 (not .def_96))) (let ((.def_98 (not A5))) (let ((.def_99 (not A10))) (let ((.def_100 (and .def_99 .def_98))) (let ((.def_101 (and .def_15 A26))) (let ((.def_102 (= .def_101 .def_100))) (let ((.def_103 (not .def_102))) (let ((.def_104 (or .def_103 .def_97))) (let ((.def_105 (not .def_104))) (let ((.def_106 (or .def_105 .def_91))) (let ((.def_107 (and .def_106 .def_79))) (let ((.def_108 (or .def_107 .def_57))) (let ((.def_109 (not .def_108))) .def_109)))))))))))))))))))))))))))))))))))))))))))))))))))))))))))))))))))))))))))))))))))))))))))))))))))))))))))))))
(check-sat)
